(set-info :smt-lib-version 2.6)
(set-logic QF_BV)
(set-info :source |
 Patrice Godefroid, SAGE (systematic dynamic test generation)
 For more information: http://research.microsoft.com/en-us/um/people/pg/public_psfiles/ndss2008.pdf
|)
(set-info :category "industrial")
(set-info :status unsat)
(declare-fun T1_114127 () (_ BitVec 8))
(declare-fun T1_114128 () (_ BitVec 8))
(declare-fun T1_114129 () (_ BitVec 8))
(assert (let ((?v_4 ((_ zero_extend 24) (_ bv3 8))) (?v_3 ((_ zero_extend 24) (_ bv1 8))) (?v_2 ((_ zero_extend 24) (_ bv2 8))) (?v_0 (bvsub ((_ zero_extend 24) T1_114127) (_ bv48 32)))) (let ((?v_1 (bvsub (bvadd ((_ zero_extend 24) T1_114128) (bvshl (bvadd ?v_0 (bvshl ?v_0 ?v_2)) ?v_3)) (_ bv48 32)))) (let ((?v_11 (bvadd ((_ zero_extend 24) T1_114129) (bvshl (bvadd ?v_1 (bvshl ?v_1 ?v_2)) ?v_3)))) (let ((?v_12 (bvsub ?v_11 (_ bv48 32)))) (let ((?v_19 (bvmul ?v_12 (_ bv4 32)))) (let ((?v_20 (bvand (bvadd ?v_19 (_ bv15 32)) (_ bv4294967288 32)))) (let ((?v_5 (bvashr ?v_20 ?v_4))) (let ((?v_13 (bvshl ?v_5 ?v_4))) (let ((?v_21 (bvadd ?v_13 (_ bv41810080 32))) (?v_18 (bvashr ?v_5 ((_ zero_extend 24) (_ bv5 8)))) (?v_17 (bvsub (_ bv64 32) ?v_5)) (?v_6 (bvsub (_ bv233 32) ?v_5)) (?v_15 ((_ zero_extend 24) (_ bv16 8)))) (let ((?v_16 (bvadd (bvashr (bvadd ?v_13 (_ bv105392 32)) ?v_15) ?v_3)) (?v_14 (bvadd (bvashr (bvadd ?v_13 (_ bv194712 32)) ?v_15) ?v_3)) (?v_8 ((_ extract 7 0) ?v_6)) (?v_7 ((_ extract 15 8) ?v_6))) (let ((?v_10 (bvxor (bvadd (bvadd ((_ zero_extend 24) ?v_8) (bvshl ((_ zero_extend 24) ?v_7) (_ bv8 32))) (bvshl ((_ zero_extend 24) (bvxor (bvxor ?v_7 ?v_8) (_ bv0 8))) (_ bv24 32))) (_ bv1117097792 32)))) (let ((?v_9 (bvxor ?v_10 (_ bv1117097792 32)))) (and true (= ?v_21 (_ bv39452868 32)) (bvsle (bvsub (_ bv33 32) ?v_9) (_ bv0 32)) (bvsle (bvsub (_ bv20 32) ?v_9) (_ bv0 32)) (not (= (bvand (_ bv1048576 32) ?v_10) (_ bv0 32))) (not (= (bvand ?v_10 (_ bv1048576 32)) (_ bv0 32))) (bvslt (bvsub ?v_11 (_ bv149 32)) (_ bv0 32)) (bvsle (_ bv0 32) (bvsub ?v_11 (_ bv148 32))) (bvsle (_ bv0 32) (bvsub ?v_11 (_ bv49 32))) (not (= (bvadd (bvshl (bvadd ?v_5 ?v_5) ?v_2) (_ bv39453052 32)) (_ bv0 32))) (bvslt ?v_12 (_ bv536870911 32)) (bvsle (_ bv0 32) ?v_12) (not (= ?v_12 (_ bv0 32))) (bvslt (_ bv0 32) ?v_12) (bvslt ?v_14 (_ bv254 32)) (bvslt (_ bv0 32) ?v_14) (bvslt ?v_16 (_ bv254 32)) (bvslt (_ bv0 32) ?v_16) (bvslt (_ bv0 32) (bvsub ?v_6 (_ bv42 32))) (bvsle (bvsub ?v_17 (_ bv13 32)) (_ bv0 32)) (bvslt (_ bv0 32) (bvsub ?v_17 (_ bv2 32))) (bvsle (bvsub ?v_17 (_ bv233 32)) (_ bv0 32)) (bvult (_ bv3 32) (bvadd ?v_18 (_ bv3 32))) (bvule (bvadd ?v_18 (_ bv2 32)) (_ bv3 32)) (bvult ?v_19 (_ bv2147483648 32)) (bvule ?v_19 (_ bv2147483647 32)) (not (= ?v_19 (_ bv0 32))) (bvule ?v_19 (_ bv4294967264 32)) (bvslt (_ bv0 32) ?v_19) (bvult (bvsub ?v_20 ?v_19) (_ bv63 32)) (not (= ?v_6 (_ bv2047 32))) (bvult ?v_6 (_ bv2048 32)) (bvule (_ bv128 32) ?v_6) (not (= ?v_6 (_ bv1 32))) (not (= ?v_17 (_ bv127 32))) (bvule ?v_17 (_ bv13 32)) (bvult ?v_17 (_ bv128 32)) (not (= ?v_17 (_ bv1 32))) (not (= ?v_17 (_ bv0 32))) (bvule ?v_18 (_ bv3 32)) (bvslt (_ bv0 32) (bvsub ?v_5 (_ bv2 32))) (bvsle (bvsub ?v_5 (_ bv233 32)) (_ bv0 32)) (bvule ?v_5 (_ bv64 32)) (bvule ?v_5 (_ bv65024 32)) (bvule (_ bv2 32) ?v_5) (bvult ?v_5 (_ bv127 32)) (bvult ?v_5 (_ bv128 32)) (not (= (_ bv39452868 32) ?v_21))))))))))))))))
(check-sat)
(exit)
